; benchmark generated from python API
(set-info :status unknown)
(declare-datatypes ((RealState 0)) (((RMk1 (rval1 Real)) (RMk2 (rval2 Real)))))
 (assert
 (exists ((|v11:0_st| RealState) (val!4772 Real) )(exists ((|v10:1_st| RealState) (val!4773 Real) )(exists ((|v9:2_st| RealState) (val!4774 Real) )(exists ((|v8:3_st| RealState) (val!4775 Real) )(forall ((|v7:4| Real) )(forall ((|v6:5| Real) )(forall ((|v5:6| Real) )(forall ((|v4:7| Real) )(exists ((|v3:8_st| RealState) (val!4776 Real) )(exists ((|v2:9_st| RealState) (val!4777 Real) )(exists ((|v1:10_st| RealState) (val!4778 Real) )(exists ((|v0:11_st| RealState) (val!4779 Real) )(let ((?x273 (rval2 |v2:9_st|)))
 (let ((?x2758 (* 14.0 ?x273)))
 (let ((?x1098 (+ (+ (* 5.0 (rval2 |v9:2_st|)) (* 12.0 (rval2 |v0:11_st|))) (* (- 13.0) |v5:6|))))
 (let ((?x977 (- 6.0)))
 (let ((?x2572 (- 4.0)))
 (let ((?x3310 (* ?x2572 |v5:6|)))
 (let ((?x2250 (rval2 |v10:1_st|)))
 (let ((?x2161 (* 5.0 ?x2250)))
 (let (($x797 (<= (+ (+ (+ (* 10.0 ?x2250) (* ?x2572 (rval2 |v9:2_st|))) ?x2161) ?x3310) ?x977)))
 (let ((?x2332 (* 12.0 |v5:6|)))
 (let ((?x2951 (+ (+ (+ (* 8.0 |v6:5|) (* 16.0 (rval2 |v1:10_st|))) (* 0.0 ?x2250)) ?x2332)))
 (let ((?x2393 (+ (+ (+ (* 16.0 |v5:6|) (* 17.0 |v7:4|)) (* 10.0 |v6:5|)) (* (- 14.0) (rval2 |v3:8_st|)))))
 (let (($x3227 (and (and (<= ?x2393 19.0) (<= ?x2951 12.0)) (and $x797 (<= (+ ?x1098 ?x2758) 12.0)))))
 (let ((?x2397 (rval2 |v3:8_st|)))
 (let ((?x2083 (* 7.0 ?x2397)))
 (let ((?x244 (+ (+ (+ (* 13.0 |v6:5|) (* 20.0 (rval2 |v9:2_st|))) ?x2083) (* (- 3.0) ?x273))))
 (let ((?x2648 (- 8.0)))
 (let ((?x1075 (+ (+ (+ (* 3.0 ?x2397) (* 15.0 |v7:4|)) (* 16.0 ?x2250)) (* (- 10.0) ?x273))))
 (let ((?x1633 (- 7.0)))
 (let ((?x2500 (+ (+ (+ (* (- 12.0) |v5:6|) (* 2.0 (rval2 |v11:0_st|))) (* 18.0 ?x273)) (* ?x2572 (rval2 |v8:3_st|)))))
 (let ((?x1709 (- 16.0)))
 (let ((?x3071 (rval2 |v8:3_st|)))
 (let ((?x3001 (* 15.0 ?x3071)))
 (let ((?x1039 (+ (+ (+ (* (- 9.0) ?x2250) (* (- 15.0) |v6:5|)) (* 13.0 |v4:7|)) ?x3001)))
 (let (($x2212 (or (and (<= ?x1039 ?x1709) (<= ?x2500 ?x1633)) (and (<= ?x1075 ?x2648) (<= ?x244 14.0)))))
 (let ((?x866 (+ (+ (+ (* 8.0 ?x273) (* (- 15.0) ?x2250)) (* ?x2572 ?x2397)) (* (- 3.0) |v6:5|))))
 (let ((?x3356 (+ (+ (+ (* 3.0 ?x3071) (* 13.0 (rval2 |v1:10_st|))) (* 11.0 ?x273)) (* 0.0 ?x273))))
 (let ((?x2376 (* 16.0 |v4:7|)))
 (let ((?x1187 (* 17.0 ?x273)))
 (let ((?x1248 (+ (+ (+ (* ?x977 (rval2 |v0:11_st|)) (* (- 1.0) (rval2 |v9:2_st|))) ?x1187) ?x2376)))
 (let ((?x2166 (* 4.0 |v5:6|)))
 (let ((?x1256 (+ (+ (* 14.0 |v4:7|) (* (- 1.0) |v5:6|)) (* (- 9.0) (rval2 |v1:10_st|)))))
 (let (($x3166 (and (and (<= (+ ?x1256 ?x2166) 15.0) (<= ?x1248 13.0)) (and (<= ?x3356 13.0) (<= ?x866 20.0)))))
 (let ((?x3044 (- 20.0)))
 (let ((?x2946 (- 12.0)))
 (let ((?x1730 (* ?x2946 |v6:5|)))
 (let ((?x1601 (+ (+ (* (- 9.0) (rval2 |v0:11_st|)) (* (- 15.0) (rval2 |v1:10_st|))) (* 7.0 |v5:6|))))
 (let ((?x496 (- 19.0)))
 (let ((?x1319 (- 13.0)))
 (let ((?x1654 (* ?x1319 |v6:5|)))
 (let ((?x3076 (+ (+ (* (- 14.0) (rval2 |v1:10_st|)) (* (- 11.0) ?x273)) (* (- 18.0) |v4:7|))))
 (let ((?x3383 (* 3.0 ?x3071)))
 (let (($x2875 (<= (+ (+ (+ (* 6.0 (rval2 |v11:0_st|)) (* ?x1709 ?x2397)) (rval2 |v1:10_st|)) ?x3383) 18.0)))
 (let (($x199 (<= (+ (+ (+ (* 12.0 ?x2250) (* 6.0 |v5:6|)) (* ?x977 |v4:7|)) ?x2758) 2.0)))
 (let (($x2094 (and (and $x199 $x2875) (and (<= (+ ?x3076 ?x1654) ?x496) (<= (+ ?x1601 ?x1730) ?x3044)))))
 (let ((?x2653 (+ (+ (+ (* 13.0 ?x2250) (* 18.0 |v7:4|)) (* 16.0 |v7:4|)) (* (- 3.0) |v4:7|))))
 (let ((?x562 (* ?x1709 |v6:5|)))
 (let ((?x3431 (+ (+ (* ?x2648 |v4:7|) (* 9.0 (rval2 |v1:10_st|))) (* 4.0 (rval2 |v9:2_st|)))))
 (let ((?x721 (rval2 |v0:11_st|)))
 (let ((?x1073 (* 4.0 ?x721)))
 (let (($x1646 (<= (+ (+ (+ (* 4.0 |v4:7|) (* 6.0 (rval2 |v1:10_st|))) ?x3383) ?x1073) ?x496)))
 (let ((?x1825 (+ (+ (+ (* ?x1319 ?x3071) (* 20.0 ?x2397)) (* 4.0 |v7:4|)) (* (- 11.0) ?x3071))))
 (let (($x3452 (and (and (<= ?x1825 3.0) $x1646) (and (<= (+ ?x3431 ?x562) 10.0) (<= ?x2653 ?x3044)))))
 (let ((?x1402 (* 6.0 |v6:5|)))
 (let (($x3256 (<= (+ (+ (+ (* (- 2.0) ?x3071) (* 19.0 ?x3071)) ?x1187) ?x1402) 17.0)))
 (let ((?x2503 (- 3.0)))
 (let ((?x843 (* 13.0 |v5:6|)))
 (let ((?x1106 (+ (+ (+ (* 18.0 ?x2397) (* (- 5.0) (rval2 |v11:0_st|))) (* 17.0 |v5:6|)) ?x843)))
 (let ((?x2403 (* 14.0 |v7:4|)))
 (let ((?x2789 (+ (+ (+ (* (- 17.0) ?x2250) (* ?x3044 (rval2 |v11:0_st|))) (* 0.0 |v6:5|)) ?x2403)))
 (let ((?x1774 (- 11.0)))
 (let ((?x694 (* ?x977 ?x273)))
 (let ((?x789 (+ (+ (* (- 5.0) (rval2 |v1:10_st|)) (* (- 5.0) ?x2250)) (* (- 14.0) ?x273))))
 (let (($x629 (and (or (<= (+ ?x789 ?x694) ?x1774) (<= ?x2789 14.0)) (and (<= ?x1106 ?x2503) $x3256))))
 (let ((?x12 (+ (+ (+ (* (- 17.0) ?x2397) (* (- 14.0) |v7:4|)) (* 7.0 |v4:7|)) (* (- 15.0) (rval2 |v11:0_st|)))))
 (let ((?x3138 (rval2 |v1:10_st|)))
 (let ((?x698 (* ?x1709 ?x3138)))
 (let ((?x1234 (+ (+ (+ (* (- 18.0) |v6:5|) (* (- 17.0) ?x3138)) (* 0.0 ?x3138)) ?x698)))
 (let ((?x82 (+ (+ (+ (* (- 15.0) |v5:6|) (* 11.0 ?x2250)) (* 9.0 |v7:4|)) (* (- 9.0) ?x3071))))
 (let ((?x2749 (- 17.0)))
 (let ((?x2412 (* ?x2749 ?x3138)))
 (let ((?x3172 (+ (+ (+ (* (- 9.0) |v7:4|) (* 17.0 ?x721)) (* (- 14.0) ?x3071)) ?x2412)))
 (let (($x3143 (and (and (<= ?x3172 ?x1633) (<= ?x82 10.0)) (and (<= ?x1234 ?x2572) (<= ?x12 ?x977)))))
 (let ((?x1477 (- 5.0)))
 (let ((?x2209 (* 8.0 ?x3138)))
 (let (($x1988 (<= (+ (+ (+ (* ?x1709 ?x2397) (* 10.0 |v4:7|)) (* ?x2946 ?x2250)) ?x2209) ?x1477)))
 (let (($x302 (<= (+ (+ (+ (* 14.0 ?x2250) (* ?x1774 ?x3138)) ?x1073) (* 6.0 ?x3138)) ?x1774)))
 (let ((?x2072 (- 14.0)))
 (let ((?x539 (* 14.0 ?x2250)))
 (let ((?x1389 (+ (+ (+ (* (- 15.0) (rval2 |v9:2_st|)) (* ?x1709 (rval2 |v9:2_st|))) ?x539) (* (- 2.0) |v7:4|))))
 (let (($x2103 (<= (+ (+ (+ (* 15.0 ?x3138) (* 13.0 ?x3138)) (* ?x496 ?x721)) ?x562) 14.0)))
 (let (($x1615 (and (and (and (and $x2103 (<= ?x1389 ?x2072)) (and $x302 $x1988)) $x3143) (or $x629 $x3452))))
 (let ((?x117 (* 14.0 ?x3071)))
 (let ((?x1244 (+ (+ (+ (* 17.0 |v5:6|) (* 17.0 ?x2397)) (* ?x2072 (rval2 |v11:0_st|))) ?x117)))
 (let ((?x2387 (- 1.0)))
 (let ((?x220 (rval2 |v11:0_st|)))
 (let ((?x2481 (* ?x496 ?x220)))
 (let (($x2561 (<= (+ (+ (+ (* 10.0 ?x220) (* 15.0 ?x273)) (* ?x2572 |v6:5|)) ?x2481) ?x2387)))
 (let ((?x2588 (* ?x977 ?x721)))
 (let (($x298 (<= (+ (+ (+ (* 0.0 ?x3138) (* 7.0 ?x2250)) (* ?x1319 ?x721)) ?x2588) 15.0)))
 (let (($x3200 (and $x298 (<= (+ (+ (+ (* 2.0 ?x3071) ?x2481) ?x2758) (* ?x2072 ?x721)) ?x2648))))
 (let ((?x1528 (+ (+ (+ (* 19.0 ?x220) (* ?x2648 ?x721)) (* ?x2387 ?x220)) (* 20.0 ?x721))))
 (let ((?x2887 (+ (+ (+ (* 4.0 ?x3071) (* (- 2.0) ?x721)) ?x3310) (* 4.0 ?x2397))))
 (let ((?x2096 (- 10.0)))
 (let ((?x14 (* 5.0 |v4:7|)))
 (let (($x332 (<= (+ (+ (+ (* 10.0 |v5:6|) (* 20.0 |v5:6|)) (* 11.0 ?x721)) ?x14) ?x2096)))
 (let ((?x504 (* 3.0 |v7:4|)))
 (let ((?x2858 (+ (+ (+ (* 19.0 ?x2397) (* 9.0 (rval2 |v9:2_st|))) (* 6.0 ?x721)) ?x504)))
 (let (($x408 (and (and (<= ?x2858 1.0) $x332) (and (<= ?x2887 ?x2387) (<= ?x1528 ?x2648)))))
 (let ((?x71 (- 9.0)))
 (let ((?x1908 (* ?x71 ?x721)))
 (let (($x2557 (<= (+ (+ (+ (* (- 18.0) ?x3138) (* ?x1319 ?x2250)) (* ?x3044 ?x3138)) ?x1908) 7.0)))
 (let (($x1456 (<= (+ (+ (+ (* ?x1709 ?x3071) (* ?x2503 |v5:6|)) (* ?x1477 ?x721)) ?x2083) 8.0)))
 (let ((?x3119 (* 17.0 ?x2397)))
 (let ((?x2488 (+ (+ (+ (* 18.0 ?x3138) (* 13.0 ?x273)) (* (- 15.0) |v4:7|)) ?x3119)))
 (let ((?x811 (+ (+ (+ (* ?x2572 ?x721) (* ?x3044 |v5:6|)) (* ?x71 ?x273)) (* (- 15.0) ?x3071))))
 (let ((?x2826 (* 2.0 ?x721)))
 (let (($x2604 (<= (+ (+ (+ (* 11.0 ?x721) (* 12.0 |v7:4|)) (* 20.0 |v7:4|)) ?x2826) 7.0)))
 (let ((?x662 (* 4.0 ?x273)))
 (let ((?x68 (+ (+ (+ (* ?x2387 |v6:5|) (* 15.0 (rval2 |v9:2_st|))) (* 10.0 ?x2250)) ?x662)))
 (let ((?x1642 (- 18.0)))
 (let ((?x730 (+ (+ (+ (* ?x2749 ?x273) (* (- 15.0) ?x721)) (* 10.0 ?x273)) (* ?x2096 ?x2250))))
 (let ((?x2432 (* ?x2572 |v4:7|)))
 (let (($x2440 (<= (+ (+ (+ (* 4.0 ?x220) (* 19.0 ?x273)) (* 19.0 ?x2250)) ?x2432) 0.0)))
 (let (($x1630 (and (and (or $x2440 (<= ?x730 ?x1642)) (and (<= ?x68 ?x3044) $x2604)) (and (or (<= ?x811 ?x2572) (<= ?x2488 ?x1477)) (and $x1456 $x2557)))))
 (let (($x1470 (<= (+ (+ (+ (* ?x2072 |v6:5|) (* ?x1642 ?x3138)) ?x2403) (* 8.0 ?x3071)) 20.0)))
 (let ((?x1505 (+ (+ (+ (* ?x3044 |v7:4|) (* ?x977 ?x2397)) (* (- 15.0) ?x2397)) (* ?x2096 (rval2 |v9:2_st|)))))
 (let ((?x1616 (* 16.0 ?x3138)))
 (let (($x738 (<= (+ (+ (+ (* ?x1319 ?x721) (* ?x2096 |v6:5|)) (* 13.0 ?x721)) ?x1616) ?x1709)))
 (let ((?x3147 (rval2 |v9:2_st|)))
 (let (($x1830 (<= (+ (+ (+ (* 2.0 |v6:5|) (* ?x2096 ?x2397)) (* (- 15.0) |v5:6|)) ?x3147) 7.0)))
 (let ((?x1545 (+ (+ (+ (* ?x2387 ?x273) (* 20.0 ?x220)) (* 9.0 |v4:7|)) (* ?x3044 |v4:7|))))
 (let ((?x2238 (* 8.0 |v4:7|)))
 (let (($x2934 (and (<= (+ (+ (+ (* 18.0 ?x721) (* ?x2648 |v4:7|)) ?x2238) ?x2238) ?x977) (<= ?x1545 16.0))))
 (let ((?x1125 (* 20.0 ?x2250)))
 (let (($x3084 (<= (+ (+ (+ (* ?x1709 ?x2397) (* ?x2648 ?x3071)) (* ?x2387 ?x2397)) ?x1125) 19.0)))
 (let ((?x2978 (* ?x2072 ?x220)))
 (let (($x2263 (<= (+ (+ (+ (* 6.0 ?x3138) (* ?x71 |v5:6|)) (* ?x2503 ?x721)) ?x2978) ?x2946)))
 (let (($x2922 (and (and (and $x2263 $x3084) $x2934) (and (and $x1830 $x738) (and (<= ?x1505 ?x2072) $x1470)))))
 (let ((?x459 (+ (+ (+ (* ?x1709 |v4:7|) (* 15.0 ?x220)) (* 3.0 |v6:5|)) (* ?x2387 ?x2250))))
 (let ((?x1705 (+ (+ (+ (* ?x2749 ?x2250) (* 16.0 ?x2250)) (* 13.0 ?x220)) (* ?x1774 |v7:4|))))
 (let (($x2126 (<= (+ (+ (+ (* 9.0 ?x2397) ?x694) (* ?x2946 ?x273)) (* ?x496 |v5:6|)) ?x2946)))
 (let (($x17 (and (<= (+ (+ (+ (* 5.0 ?x721) ?x3119) ?x698) (* ?x1319 ?x220)) 18.0) $x2126)))
 (let ((?x1608 (* 13.0 ?x3147)))
 (let (($x941 (<= (+ (+ (+ (* 14.0 ?x2397) (* 11.0 ?x3071)) (* 6.0 ?x3071)) ?x1608) ?x2387)))
 (let ((?x3031 (+ (+ (+ (* ?x1709 ?x220) (* 4.0 |v7:4|)) (* ?x1633 ?x220)) (* ?x2503 ?x2397))))
 (let (($x1366 (<= (+ (+ (+ (* 10.0 ?x3138) ?x1187) (* ?x1319 ?x3138)) (* 17.0 ?x220)) ?x71)))
 (let ((?x3258 (* ?x2387 ?x273)))
 (let (($x376 (<= (+ (+ (+ (* 4.0 ?x3071) (* 13.0 ?x3138)) (* 0.0 ?x2250)) ?x3258) 1.0)))
 (let (($x104 (and (and (and $x376 $x1366) (and (<= ?x3031 13.0) $x941)) (and $x17 (and (<= ?x1705 10.0) (<= ?x459 7.0))))))
 (let (($x1238 (or (and $x104 $x2922) (and $x1630 (and $x408 (and $x3200 (and $x2561 (<= ?x1244 8.0))))))))
 (let (($x1161 (not (= |v0:11_st| (RMk1 val!4779)))))
 (let (($x1272 (not (= |v1:10_st| (RMk1 val!4778)))))
 (let (($x1346 (not (= |v2:9_st| (RMk1 val!4777)))))
 (let (($x2005 (not (= |v3:8_st| (RMk1 val!4776)))))
 (let (($x1367 (not (= |v8:3_st| (RMk1 val!4775)))))
 (let (($x3058 (not (= |v9:2_st| (RMk1 val!4774)))))
 (let (($x1294 (not (= |v10:1_st| (RMk1 val!4773)))))
 (let (($x2915 (not (= |v11:0_st| (RMk1 val!4772)))))
 (and $x2915 $x1294 $x3058 $x1367 $x2005 $x1346 $x1272 $x1161 (and $x1238 (and $x1615 (and (and $x2094 $x3166) (and $x2212 $x3227)))))))))))))))))))))))))))))))))))))))))))))))))))))))))))))))))))))))))))))))))))))))))))))))))))))))))))))))))))))))))))))))))))))))))))))))))))))))))))
 )
 )
 )
 )
 )
 )
 )
 )
 )
 )
 )
 )
(check-sat)
